c strEdges: 125  randomEdges: 504 
c degrees:  1  2 
c girth: Inf max: -43.604516  
c Hgirth mixed MAXCUT instance
c generated from an undirected graph
c to solve unweighted MaxCut
p cnf 140 1258
140 74 0
-140 -74 0
90 6 0
-90 -6 0
95 123 0
-95 -123 0
95 32 0
-95 -32 0
129 124 0
-129 -124 0
129 35 0
-129 -35 0
98 1 0
-98 -1 0
98 48 0
-98 -48 0
99 27 0
-99 -27 0
99 53 0
-99 -53 0
78 72 0
-78 -72 0
78 125 0
-78 -125 0
117 127 0
-117 -127 0
55 4 0
-55 -4 0
55 43 0
-55 -43 0
92 59 0
-92 -59 0
92 114 0
-92 -114 0
3 115 0
-3 -115 0
3 137 0
-3 -137 0
20 24 0
-20 -24 0
20 2 0
-20 -2 0
60 105 0
-60 -105 0
71 137 0
-71 -137 0
71 29 0
-71 -29 0
134 21 0
-134 -21 0
134 51 0
-134 -51 0
44 2 0
-44 -2 0
46 82 0
-46 -82 0
46 4 0
-46 -4 0
111 34 0
-111 -34 0
111 138 0
-111 -138 0
120 65 0
-120 -65 0
120 22 0
-120 -22 0
62 94 0
-62 -94 0
62 127 0
-62 -127 0
42 49 0
-42 -49 0
42 122 0
-42 -122 0
69 126 0
-69 -126 0
69 131 0
-69 -131 0
16 29 0
-16 -29 0
16 49 0
-16 -49 0
58 67 0
-58 -67 0
113 81 0
-113 -81 0
89 84 0
-89 -84 0
89 31 0
-89 -31 0
70 28 0
-70 -28 0
139 9 0
-139 -9 0
139 74 0
-139 -74 0
97 119 0
-97 -119 0
97 30 0
-97 -30 0
86 68 0
-86 -68 0
86 104 0
-86 -104 0
108 22 0
-108 -22 0
108 84 0
-108 -84 0
112 66 0
-112 -66 0
112 105 0
-112 -105 0
15 35 0
-15 -35 0
56 63 0
-56 -63 0
56 34 0
-56 -34 0
45 48 0
-45 -48 0
132 43 0
-132 -43 0
132 1 0
-132 -1 0
87 17 0
-87 -17 0
13 73 0
-13 -73 0
13 41 0
-13 -41 0
39 118 0
-39 -118 0
39 130 0
-39 -130 0
128 37 0
-128 -37 0
128 59 0
-128 -59 0
91 53 0
-91 -53 0
91 12 0
-91 -12 0
88 26 0
-88 -26 0
10 85 0
-10 -85 0
10 68 0
-10 -68 0
83 138 0
-83 -138 0
83 65 0
-83 -65 0
54 76 0
-54 -76 0
54 66 0
-54 -66 0
36 14 0
-36 -14 0
36 63 0
-36 -63 0
135 104 0
-135 -104 0
135 77 0
-135 -77 0
11 8 0
-11 -8 0
11 21 0
-11 -21 0
100 102 0
-100 -102 0
100 73 0
-100 -73 0
18 31 0
-18 -31 0
18 7 0
-18 -7 0
133 109 0
-133 -109 0
133 126 0
-133 -126 0
52 23 0
-52 -23 0
52 25 0
-52 -25 0
103 12 0
-103 -12 0
103 82 0
-103 -82 0
93 7 0
-93 -7 0
93 94 0
-93 -94 0
5 77 0
-5 -77 0
5 76 0
-5 -76 0
75 41 0
-75 -41 0
75 67 0
-75 -67 0
79 116 0
-79 -116 0
79 124 0
-79 -124 0
33 32 0
-33 -32 0
33 118 0
-33 -118 0
80 125 0
-80 -125 0
80 6 0
-80 -6 0
107 114 0
-107 -114 0
107 17 0
-107 -17 0
121 61 0
-121 -61 0
50 64 0
-50 -64 0
110 19 0
-110 -19 0
110 85 0
-110 -85 0
106 30 0
-106 -30 0
106 81 0
-106 -81 0
38 130 0
-38 -130 0
38 37 0
-38 -37 0
136 131 0
-136 -131 0
136 8 0
-136 -8 0
57 25 0
-57 -25 0
57 28 0
-57 -28 0
47 51 0
-47 -51 0
96 122 0
-96 -122 0
96 9 0
-96 -9 0
101 40 0
-101 -40 0
101 61 0
-101 -61 0
39 47 0
-39 -47 0
113 24 0
-113 -24 0
107 28 0
-107 -28 0
113 8 0
-113 -8 0
98 137 0
-98 -137 0
129 68 0
-129 -68 0
47 14 0
-47 -14 0
44 136 0
-44 -136 0
3 128 0
-3 -128 0
134 108 0
-134 -108 0
11 100 0
-11 -100 0
140 83 0
-140 -83 0
2 67 0
-2 -67 0
45 50 0
-45 -50 0
113 32 0
-113 -32 0
31 19 0
-31 -19 0
69 40 0
-69 -40 0
42 61 0
-42 -61 0
111 14 0
-111 -14 0
15 10 0
-15 -10 0
127 43 0
-127 -43 0
62 7 0
-62 -7 0
128 24 0
-128 -24 0
55 20 0
-55 -20 0
93 5 0
-93 -5 0
65 17 0
-65 -17 0
26 14 0
-26 -14 0
115 114 0
-115 -114 0
110 40 0
-110 -40 0
88 38 0
-88 -38 0
135 133 0
-135 -133 0
54 29 0
-54 -29 0
57 94 0
-57 -94 0
57 34 0
-57 -34 0
136 96 0
-136 -96 0
121 85 0
-121 -85 0
72 31 0
-72 -31 0
126 23 0
-126 -23 0
109 125 0
-109 -125 0
99 91 0
-99 -91 0
74 127 0
-74 -127 0
106 74 0
-106 -74 0
111 122 0
-111 -122 0
78 4 0
-78 -4 0
103 57 0
-103 -57 0
83 82 0
-83 -82 0
108 138 0
-108 -138 0
63 19 0
-63 -19 0
42 23 0
-42 -23 0
52 72 0
-52 -72 0
18 72 0
-18 -72 0
140 59 0
-140 -59 0
6 59 0
-6 -59 0
71 104 0
-71 -104 0
59 25 0
-59 -25 0
70 133 0
-70 -133 0
129 9 0
-129 -9 0
39 12 0
-39 -12 0
20 56 0
-20 -56 0
2 19 0
-2 -19 0
92 39 0
-92 -39 0
83 22 0
-83 -22 0
120 43 0
-120 -43 0
132 26 0
-132 -26 0
42 70 0
-42 -70 0
58 17 0
-58 -17 0
106 26 0
-106 -26 0
93 96 0
-93 -96 0
127 77 0
-127 -77 0
10 51 0
-10 -51 0
117 105 0
-117 -105 0
90 44 0
-90 -44 0
35 23 0
-35 -23 0
135 41 0
-135 -41 0
47 63 0
-47 -63 0
111 11 0
-111 -11 0
48 12 0
-48 -12 0
117 48 0
-117 -48 0
133 101 0
-133 -101 0
24 63 0
-24 -63 0
45 103 0
-45 -103 0
3 15 0
-3 -15 0
29 8 0
-29 -8 0
80 85 0
-80 -85 0
101 51 0
-101 -51 0
55 37 0
-55 -37 0
140 111 0
-140 -111 0
47 40 0
-47 -40 0
120 36 0
-120 -36 0
96 1 0
-96 -1 0
99 94 0
-99 -94 0
45 83 0
-45 -83 0
132 73 0
-132 -73 0
80 24 0
-80 -24 0
60 101 0
-60 -101 0
107 85 0
-107 -85 0
89 6 0
-89 -6 0
62 63 0
-62 -63 0
126 9 0
-126 -9 0
80 34 0
-80 -34 0
15 51 0
-15 -51 0
73 51 0
-73 -51 0
69 119 0
-69 -119 0
120 96 0
-120 -96 0
78 24 0
-78 -24 0
110 21 0
-110 -21 0
71 7 0
-71 -7 0
11 114 0
-11 -114 0
98 51 0
-98 -51 0
69 17 0
-69 -17 0
28 12 0
-28 -12 0
15 11 0
-15 -11 0
44 59 0
-44 -59 0
134 106 0
-134 -106 0
69 26 0
-69 -26 0
92 24 0
-92 -24 0
113 106 0
-113 -106 0
70 54 0
-70 -54 0
63 76 0
-63 -76 0
134 82 0
-134 -82 0
60 54 0
-60 -54 0
134 62 0
-134 -62 0
87 130 0
-87 -130 0
36 61 0
-36 -61 0
15 106 0
-15 -106 0
110 94 0
-110 -94 0
6 22 0
-6 -22 0
11 37 0
-11 -37 0
49 12 0
-49 -12 0
11 109 0
-11 -109 0
133 23 0
-133 -23 0
104 8 0
-104 -8 0
90 25 0
-90 -25 0
11 64 0
-11 -64 0
47 105 0
-47 -105 0
39 9 0
-39 -9 0
1 82 0
-1 -82 0
46 38 0
-46 -38 0
78 123 0
-78 -123 0
123 29 0
-123 -29 0
88 100 0
-88 -100 0
11 122 0
-11 -122 0
42 87 0
-42 -87 0
120 81 0
-120 -81 0
100 26 0
-100 -26 0
27 125 0
-27 -125 0
42 14 0
-42 -14 0
88 104 0
-88 -104 0
121 72 0
-121 -72 0
129 110 0
-129 -110 0
11 29 0
-11 -29 0
86 85 0
-86 -85 0
73 23 0
-73 -23 0
38 104 0
-38 -104 0
69 93 0
-69 -93 0
75 79 0
-75 -79 0
91 30 0
-91 -30 0
90 122 0
-90 -122 0
5 57 0
-5 -57 0
34 125 0
-34 -125 0
135 109 0
-135 -109 0
78 40 0
-78 -40 0
129 15 0
-129 -15 0
20 19 0
-20 -19 0
72 73 0
-72 -73 0
139 13 0
-139 -13 0
93 122 0
-93 -122 0
87 9 0
-87 -9 0
129 136 0
-129 -136 0
82 34 0
-82 -34 0
136 29 0
-136 -29 0
79 80 0
-79 -80 0
34 53 0
-34 -53 0
83 77 0
-83 -77 0
1 73 0
-1 -73 0
123 109 0
-123 -109 0
117 11 0
-117 -11 0
82 77 0
-82 -77 0
99 131 0
-99 -131 0
48 23 0
-48 -23 0
99 35 0
-99 -35 0
94 64 0
-94 -64 0
56 136 0
-56 -136 0
105 94 0
-105 -94 0
71 41 0
-71 -41 0
4 126 0
-4 -126 0
129 115 0
-129 -115 0
70 137 0
-70 -137 0
98 134 0
-98 -134 0
20 1 0
-20 -1 0
53 85 0
-53 -85 0
57 53 0
-57 -53 0
3 24 0
-3 -24 0
62 58 0
-62 -58 0
60 35 0
-60 -35 0
79 101 0
-79 -101 0
108 137 0
-108 -137 0
133 14 0
-133 -14 0
92 75 0
-92 -75 0
140 119 0
-140 -119 0
90 36 0
-90 -36 0
45 102 0
-45 -102 0
90 63 0
-90 -63 0
20 5 0
-20 -5 0
115 17 0
-115 -17 0
129 30 0
-129 -30 0
93 119 0
-93 -119 0
45 54 0
-45 -54 0
44 101 0
-44 -101 0
120 6 0
-120 -6 0
117 8 0
-117 -8 0
4 119 0
-4 -119 0
86 4 0
-86 -4 0
49 9 0
-49 -9 0
46 49 0
-46 -49 0
10 137 0
-10 -137 0
135 11 0
-135 -11 0
67 116 0
-67 -116 0
128 66 0
-128 -66 0
110 125 0
-110 -125 0
99 105 0
-99 -105 0
68 51 0
-68 -51 0
112 15 0
-112 -15 0
52 8 0
-52 -8 0
39 36 0
-39 -36 0
117 13 0
-117 -13 0
129 51 0
-129 -51 0
108 18 0
-108 -18 0
70 8 0
-70 -8 0
87 67 0
-87 -67 0
105 30 0
-105 -30 0
107 84 0
-107 -84 0
10 50 0
-10 -50 0
58 96 0
-58 -96 0
83 28 0
-83 -28 0
135 82 0
-135 -82 0
1 40 0
-1 -40 0
38 21 0
-38 -21 0
71 25 0
-71 -25 0
22 41 0
-22 -41 0
58 59 0
-58 -59 0
85 7 0
-85 -7 0
59 137 0
-59 -137 0
79 27 0
-79 -27 0
69 97 0
-69 -97 0
60 124 0
-60 -124 0
26 138 0
-26 -138 0
89 57 0
-89 -57 0
56 64 0
-56 -64 0
72 49 0
-72 -49 0
84 77 0
-84 -77 0
99 7 0
-99 -7 0
135 52 0
-135 -52 0
111 105 0
-111 -105 0
75 77 0
-75 -77 0
5 121 0
-5 -121 0
20 4 0
-20 -4 0
36 135 0
-36 -135 0
129 12 0
-129 -12 0
71 79 0
-71 -79 0
140 18 0
-140 -18 0
98 104 0
-98 -104 0
36 137 0
-36 -137 0
118 31 0
-118 -31 0
83 115 0
-83 -115 0
66 104 0
-66 -104 0
106 68 0
-106 -68 0
123 116 0
-123 -116 0
101 19 0
-101 -19 0
20 59 0
-20 -59 0
42 7 0
-42 -7 0
65 64 0
-65 -64 0
46 50 0
-46 -50 0
16 18 0
-16 -18 0
69 54 0
-69 -54 0
136 48 0
-136 -48 0
68 12 0
-68 -12 0
52 27 0
-52 -27 0
53 23 0
-53 -23 0
13 49 0
-13 -49 0
94 77 0
-94 -77 0
33 101 0
-33 -101 0
112 43 0
-112 -43 0
49 122 0
-49 -122 0
87 26 0
-87 -26 0
43 19 0
-43 -19 0
108 121 0
-108 -121 0
47 31 0
-47 -31 0
39 133 0
-39 -133 0
57 96 0
-57 -96 0
121 126 0
-121 -126 0
94 26 0
-94 -26 0
88 75 0
-88 -75 0
5 25 0
-5 -25 0
27 118 0
-27 -118 0
92 73 0
-92 -73 0
17 118 0
-17 -118 0
95 41 0
-95 -41 0
17 73 0
-17 -73 0
117 120 0
-117 -120 0
60 44 0
-60 -44 0
88 82 0
-88 -82 0
10 40 0
-10 -40 0
33 73 0
-33 -73 0
95 100 0
-95 -100 0
55 50 0
-55 -50 0
106 51 0
-106 -51 0
70 124 0
-70 -124 0
119 63 0
-119 -63 0
52 64 0
-52 -64 0
90 73 0
-90 -73 0
53 32 0
-53 -32 0
120 35 0
-120 -35 0
5 80 0
-5 -80 0
58 89 0
-58 -89 0
126 43 0
-126 -43 0
134 120 0
-134 -120 0
71 133 0
-71 -133 0
45 82 0
-45 -82 0
120 25 0
-120 -25 0
55 76 0
-55 -76 0
137 43 0
-137 -43 0
113 12 0
-113 -12 0
42 116 0
-42 -116 0
99 9 0
-99 -9 0
44 48 0
-44 -48 0
111 125 0
-111 -125 0
3 107 0
-3 -107 0
92 69 0
-92 -69 0
44 68 0
-44 -68 0
1 131 0
-1 -131 0
139 118 0
-139 -118 0
46 101 0
-46 -101 0
27 19 0
-27 -19 0
16 82 0
-16 -82 0
83 47 0
-83 -47 0
84 119 0
-84 -119 0
32 125 0
-32 -125 0
52 40 0
-52 -40 0
59 12 0
-59 -12 0
52 38 0
-52 -38 0
45 67 0
-45 -67 0
74 12 0
-74 -12 0
57 26 0
-57 -26 0
46 30 0
-46 -30 0
94 85 0
-94 -85 0
79 1 0
-79 -1 0
134 94 0
-134 -94 0
86 131 0
-86 -131 0
135 80 0
-135 -80 0
107 9 0
-107 -9 0
21 126 0
-21 -126 0
108 83 0
-108 -83 0
20 134 0
-20 -134 0
129 113 0
-129 -113 0
121 123 0
-121 -123 0
5 68 0
-5 -68 0
11 30 0
-11 -30 0
103 17 0
-103 -17 0
56 74 0
-56 -74 0
66 23 0
-66 -23 0
46 39 0
-46 -39 0
139 49 0
-139 -49 0
91 79 0
-91 -79 0
101 66 0
-101 -66 0
65 53 0
-65 -53 0
55 24 0
-55 -24 0
42 54 0
-42 -54 0
79 73 0
-79 -73 0
24 64 0
-24 -64 0
3 139 0
-3 -139 0
6 2 0
-6 -2 0
98 49 0
-98 -49 0
99 1 0
-99 -1 0
112 118 0
-112 -118 0
133 85 0
-133 -85 0
55 136 0
-55 -136 0
112 14 0
-112 -14 0
63 37 0
-63 -37 0
42 121 0
-42 -121 0
86 39 0
-86 -39 0
15 103 0
-15 -103 0
137 64 0
-137 -64 0
42 27 0
-42 -27 0
111 32 0
-111 -32 0
24 116 0
-24 -116 0
90 34 0
-90 -34 0
62 31 0
-62 -31 0
47 102 0
-47 -102 0
71 123 0
-71 -123 0
1 64 0
-1 -64 0
17 12 0
-17 -12 0
100 121 0
-100 -121 0
95 88 0
-95 -88 0
2 48 0
-2 -48 0
58 138 0
-58 -138 0
93 115 0
-93 -115 0
80 48 0
-80 -48 0
56 47 0
-56 -47 0
124 126 0
-124 -126 0
47 59 0
-47 -59 0
129 1 0
-129 -1 0
50 1 0
-50 -1 0
110 102 0
-110 -102 0
90 85 0
-90 -85 0
98 31 0
-98 -31 0
68 23 0
-68 -23 0
110 27 0
-110 -27 0
113 59 0
-113 -59 0
113 17 0
-113 -17 0
4 37 0
-4 -37 0
100 123 0
-100 -123 0
90 96 0
-90 -96 0
74 29 0
-74 -29 0
80 51 0
-80 -51 0
99 82 0
-99 -82 0
35 118 0
-35 -118 0
50 26 0
-50 -26 0
89 28 0
-89 -28 0
46 79 0
-46 -79 0
128 79 0
-128 -79 0
117 16 0
-117 -16 0
59 32 0
-59 -32 0
133 65 0
-133 -65 0
12 116 0
-12 -116 0
87 115 0
-87 -115 0
107 138 0
-107 -138 0
55 41 0
-55 -41 0
93 75 0
-93 -75 0
116 114 0
-116 -114 0
113 29 0
-113 -29 0
121 82 0
-121 -82 0
94 84 0
-94 -84 0
2 7 0
-2 -7 0
9 51 0
-9 -51 0
110 32 0
-110 -32 0
3 48 0
-3 -48 0
105 102 0
-105 -102 0
112 47 0
-112 -47 0
15 5 0
-15 -5 0
53 30 0
-53 -30 0
36 37 0
-36 -37 0
63 114 0
-63 -114 0
86 94 0
-86 -94 0
98 14 0
-98 -14 0
17 109 0
-17 -109 0
66 77 0
-66 -77 0
95 92 0
-95 -92 0
78 109 0
-78 -109 0
83 61 0
-83 -61 0
134 77 0
-134 -77 0
71 77 0
-71 -77 0
70 126 0
-70 -126 0
89 59 0
-89 -59 0
70 79 0
-70 -79 0
94 23 0
-94 -23 0
105 9 0
-105 -9 0
100 22 0
-100 -22 0
133 49 0
-133 -49 0
16 112 0
-16 -112 0
79 22 0
-79 -22 0
121 47 0
-121 -47 0
134 128 0
-134 -128 0
69 70 0
-69 -70 0
69 112 0
-69 -112 0
97 104 0
-97 -104 0
18 38 0
-18 -38 0
83 2 0
-83 -2 0
90 28 0
-90 -28 0
136 105 0
-136 -105 0
94 43 0
-94 -43 0
129 86 0
-129 -86 0
70 73 0
-70 -73 0
108 57 0
-108 -57 0
66 122 0
-66 -122 0
13 107 0
-13 -107 0
39 110 0
-39 -110 0
90 37 0
-90 -37 0
6 34 0
-6 -34 0
62 106 0
-62 -106 0
103 93 0
-103 -93 0
113 31 0
-113 -31 0
128 49 0
-128 -49 0
5 122 0
-5 -122 0
99 107 0
-99 -107 0
101 8 0
-101 -8 0
52 116 0
-52 -116 0
118 125 0
-118 -125 0
123 27 0
-123 -27 0
115 131 0
-115 -131 0
82 68 0
-82 -68 0
33 30 0
-33 -30 0
69 57 0
-69 -57 0
70 110 0
-70 -110 0
72 130 0
-72 -130 0
79 19 0
-79 -19 0
63 109 0
-63 -109 0
38 118 0
-38 -118 0
69 53 0
-69 -53 0
71 114 0
-71 -114 0
78 63 0
-78 -63 0
16 22 0
-16 -22 0
42 137 0
-42 -137 0
1 35 0
-1 -35 0
